(set-info :smt-lib-version 2.6)
(set-logic QF_UFNIA)
(set-info :source |
Generated by: David Deharbe, CLEARSY
Generated on: 2019-09-06
Generator: bxml;pog;pog2smt (Atelier B)
Application: B-method
Target solver: CVC4, Z3
|)
(set-info :license "https://creativecommons.org/licenses/by-nc/4.0/")
(set-info :category "industrial")
(set-info :status unsat)
; Prelude
(declare-fun |*r| (Int Int) Int)
(declare-fun |+r| (Int Int) Int)
(declare-fun |-r| (Int Int) Int)
(declare-fun rdiv (Int Int) Int)
(declare-fun |<r| (Int Int) Bool)
(declare-fun |<=r| (Int Int) Bool)
(declare-fun |>r| (Int Int) Bool)
(declare-fun |>=r| (Int Int) Bool)
(declare-fun ruminus (Int) Int)
(declare-fun TRUE () Int)
(declare-fun FALSE () Int)
(assert (not (= TRUE FALSE)))
(declare-fun empty () Int)
(declare-fun bool (Bool) Int)
(declare-fun BOOL () Int)
(declare-fun INT () Int)
(declare-fun INTEGER () Int)
(declare-fun NAT () Int)
(declare-fun NAT1 () Int)
(declare-fun NATURAL () Int)
(declare-fun NATURAL1 () Int)
(declare-fun FLOAT () Int)
(declare-fun MaxInt () Int)
(declare-fun MinInt () Int)
(declare-fun |STRING| () Int)
(declare-fun REAL () Int)
(declare-fun set_prod (Int Int) Int)
(declare-fun set_diff (Int Int) Int)
(declare-fun mapplet (Int Int) Int)
(declare-fun |**i| (Int Int) Int)
(declare-fun |**r| (Int Int) Int)
(declare-fun |+->| (Int Int) Int)
(declare-fun |+->>| (Int Int) Int)
(declare-fun |-->| (Int Int) Int)
(declare-fun |-->>| (Int Int) Int)
(declare-fun |<->| (Int Int) Int)
(declare-fun |>+>| (Int Int) Int)
(declare-fun |>->| (Int Int) Int)
(declare-fun |>+>>| (Int Int) Int)
(declare-fun |>->>| (Int Int) Int)
(declare-fun |->| (Int Int) Int)
(declare-fun interval (Int Int) Int)
(declare-fun composition (Int Int) Int)
(declare-fun binary_inter (Int Int) Int)
(declare-fun restriction_head (Int Int) Int)
(declare-fun semicolon (Int Int) Int)
(declare-fun |<+| (Int Int) Int)
(declare-fun |<-| (Int Int) Int)
(declare-fun domain_subtraction (Int Int) Int)
(declare-fun domain_restriction (Int Int) Int)
(declare-fun |><| (Int Int) Int)
(declare-fun parallel_product (Int Int) Int)
(declare-fun binary_union (Int Int) Int)
(declare-fun restriction_tail (Int Int) Int)
(declare-fun concatenate (Int Int) Int)
(declare-fun range_restriction (Int Int) Int)
(declare-fun range_subtraction (Int Int) Int)
(declare-fun image (Int Int) Int)
(declare-fun apply (Int Int) Int)
(declare-fun prj1 (Int Int) Int)
(declare-fun prj2 (Int Int) Int)
(declare-fun iterate (Int Int) Int)
(declare-fun |const| (Int Int) Int)
(declare-fun rank (Int Int) Int)
(declare-fun father (Int Int) Int)
(declare-fun subtree (Int Int) Int)
(declare-fun arity (Int Int) Int)
(declare-fun |+f| (Int Int) Int)
(declare-fun |-f| (Int Int) Int)
(declare-fun |*f| (Int Int) Int)
(declare-fun |fdiv| (Int Int) Int)
(declare-fun tbin (Int Int Int) Int)
(declare-fun son (Int Int Int) Int)
(declare-fun mem (Int Int) Bool)
(declare-fun subset (Int Int) Bool)
(declare-fun strict_subset (Int Int) Bool)
(declare-fun |<=f| (Int Int) Bool)
(declare-fun |<f| (Int Int) Bool)
(declare-fun |>=f| (Int Int) Bool)
(declare-fun |>f| (Int Int) Bool)
(declare-fun imax (Int) Int)
(declare-fun imin (Int) Int)
(declare-fun rmax (Int) Int)
(declare-fun rmin (Int) Int)
(declare-fun card (Int) Int)
(declare-fun dom (Int) Int)
(declare-fun ran (Int) Int)
(declare-fun POW (Int) Int)
(declare-fun POW1 (Int) Int)
(declare-fun FIN (Int) Int)
(declare-fun FIN1 (Int) Int)
(declare-fun union (Int) Int)
(declare-fun inter (Int) Int)
(declare-fun seq (Int) Int)
(declare-fun seq1 (Int) Int)
(declare-fun iseq (Int) Int)
(declare-fun iseq1 (Int) Int)
(declare-fun inverse (Int) Int)
(declare-fun size (Int) Int)
(declare-fun perm (Int) Int)
(declare-fun first (Int) Int)
(declare-fun last (Int) Int)
(declare-fun id (Int) Int)
(declare-fun closure (Int) Int)
(declare-fun closure1 (Int) Int)
(declare-fun tail (Int) Int)
(declare-fun front (Int) Int)
(declare-fun reverse (Int) Int)
(declare-fun rev (Int) Int)
(declare-fun conc (Int) Int)
(declare-fun succ (Int) Int)
(declare-fun pred (Int) Int)
(declare-fun rel (Int) Int)
(declare-fun fnc (Int) Int)
(declare-fun real (Int) Int)
(declare-fun floor (Int) Int)
(declare-fun ceiling (Int) Int)
(declare-fun tree (Int) Int)
(declare-fun btree (Int) Int)
(declare-fun top (Int) Int)
(declare-fun sons (Int) Int)
(declare-fun prefix (Int) Int)
(declare-fun postfix (Int) Int)
(declare-fun sizet (Int) Int)
(declare-fun mirror (Int) Int)
(declare-fun left (Int) Int)
(declare-fun right (Int) Int)
(declare-fun infix (Int) Int)
(declare-fun ubin (Int) Int)
(declare-fun SEQ (Int) Int)
(declare-fun SET (Int) Int)
; Opaque formulas
(declare-fun g_s0_0 () Int)
(declare-fun g_s1_1 () Int)
(declare-fun g_s10_10 () Int)
(declare-fun g_s100_100 () Int)
(declare-fun g_s101_101 () Int)
(declare-fun g_s102_102 () Int)
(declare-fun g_s103_103 () Int)
(declare-fun g_s104_104 () Int)
(declare-fun g_s105_105 () Int)
(declare-fun g_s106_106 () Int)
(declare-fun g_s107_107 () Int)
(declare-fun g_s108_108 () Int)
(declare-fun g_s109_109 () Int)
(declare-fun g_s11_11 () Int)
(declare-fun g_s110_110 () Int)
(declare-fun g_s111_111 () Int)
(declare-fun g_s112_112 () Int)
(declare-fun g_s113_113 () Int)
(declare-fun g_s114_114 () Int)
(declare-fun g_s115_115 () Int)
(declare-fun g_s116_116 () Int)
(declare-fun g_s117_117 () Int)
(declare-fun g_s118_118 () Int)
(declare-fun g_s119_119 () Int)
(declare-fun g_s12_12 () Int)
(declare-fun g_s120_120 () Int)
(declare-fun g_s121_121 () Int)
(declare-fun g_s122_122 () Int)
(declare-fun g_s123_123 () Int)
(declare-fun g_s124_124 () Int)
(declare-fun g_s125_125 () Int)
(declare-fun g_s126_126 () Int)
(declare-fun g_s127_127 () Int)
(declare-fun g_s128_128 () Int)
(declare-fun g_s129_129 () Int)
(declare-fun g_s13_13 () Int)
(declare-fun g_s130_130 () Int)
(declare-fun g_s131_131 () Int)
(declare-fun g_s132_132 () Int)
(declare-fun g_s133_133 () Int)
(declare-fun g_s134_134 () Int)
(declare-fun g_s135_135 () Int)
(declare-fun g_s136_136 () Int)
(declare-fun g_s137_137 () Int)
(declare-fun g_s138_138 () Int)
(declare-fun g_s139_139 () Int)
(declare-fun g_s14_14 () Int)
(declare-fun g_s140_140 () Int)
(declare-fun g_s141_141 () Int)
(declare-fun g_s142_142 () Int)
(declare-fun g_s143_143 () Int)
(declare-fun g_s144_144 () Int)
(declare-fun g_s145_145 () Int)
(declare-fun g_s146_146 () Int)
(declare-fun g_s147_147 () Int)
(declare-fun g_s148_148 () Int)
(declare-fun g_s149_149 () Int)
(declare-fun g_s15_15 () Int)
(declare-fun g_s150_150 () Int)
(declare-fun g_s151_151 () Int)
(declare-fun g_s152_152 () Int)
(declare-fun g_s153_153 () Int)
(declare-fun g_s154_154 () Int)
(declare-fun g_s155_155 () Int)
(declare-fun g_s156_156 () Int)
(declare-fun g_s157_157 () Int)
(declare-fun g_s158_158 () Int)
(declare-fun g_s159_159 () Int)
(declare-fun g_s16_16 () Int)
(declare-fun g_s160_160 () Int)
(declare-fun g_s161_161 () Int)
(declare-fun g_s162_162 () Int)
(declare-fun g_s163_163 () Int)
(declare-fun g_s164_164 () Int)
(declare-fun g_s165_165 () Int)
(declare-fun g_s166_166 () Int)
(declare-fun g_s167_167 () Int)
(declare-fun g_s168_168 () Int)
(declare-fun g_s169_169 () Int)
(declare-fun g_s17_17 () Int)
(declare-fun g_s170_170 () Int)
(declare-fun g_s171_171 () Int)
(declare-fun g_s172_172 () Int)
(declare-fun g_s173_173 () Int)
(declare-fun g_s174_174 () Int)
(declare-fun g_s175_175 () Int)
(declare-fun g_s176_176 () Int)
(declare-fun g_s177_177 () Int)
(declare-fun g_s178_179 () Int)
(declare-fun g_s179_178 () Int)
(declare-fun g_s18_18 () Int)
(declare-fun g_s180_180 () Int)
(declare-fun g_s181_181 () Int)
(declare-fun g_s182_182 () Int)
(declare-fun g_s183_183 () Int)
(declare-fun g_s184_184 () Int)
(declare-fun g_s185_185 () Int)
(declare-fun g_s186_186 () Int)
(declare-fun g_s187_187 () Int)
(declare-fun g_s188_188 () Int)
(declare-fun g_s189_189 () Int)
(declare-fun g_s19_19 () Int)
(declare-fun g_s190_190 () Int)
(declare-fun g_s191_191 () Int)
(declare-fun g_s192_192 () Int)
(declare-fun g_s193_193 () Int)
(declare-fun g_s194_194 () Int)
(declare-fun g_s195_195 () Int)
(declare-fun g_s196_196 () Int)
(declare-fun g_s197_197 () Int)
(declare-fun g_s198_198 () Int)
(declare-fun g_s199_199 () Int)
(declare-fun g_s2_2 () Int)
(declare-fun g_s20_20 () Int)
(declare-fun g_s200_200 () Int)
(declare-fun g_s201_201 () Int)
(declare-fun g_s202_202 () Int)
(declare-fun g_s203_203 () Int)
(declare-fun g_s204_204 () Int)
(declare-fun g_s205_205 () Int)
(declare-fun g_s206_206 () Int)
(declare-fun g_s207_207 () Int)
(declare-fun g_s208_208 () Int)
(declare-fun g_s209_209 () Int)
(declare-fun g_s21_21 () Int)
(declare-fun g_s210_210 () Int)
(declare-fun g_s211_211 () Int)
(declare-fun g_s212_212 () Int)
(declare-fun g_s213_213 () Int)
(declare-fun g_s214_214 () Int)
(declare-fun g_s215_215 () Int)
(declare-fun g_s216_216 () Int)
(declare-fun g_s217_217 () Int)
(declare-fun g_s218_218 () Int)
(declare-fun g_s219_219 () Int)
(declare-fun g_s22_22 () Int)
(declare-fun g_s220_220 () Int)
(declare-fun g_s221_221 () Int)
(declare-fun g_s222_222 () Int)
(declare-fun g_s223_223 () Int)
(declare-fun g_s224_224 () Int)
(declare-fun g_s225_225 () Int)
(declare-fun g_s226_226 () Int)
(declare-fun g_s227_227 () Int)
(declare-fun g_s228_228 () Int)
(declare-fun g_s229_229 () Int)
(declare-fun g_s23_23 () Int)
(declare-fun g_s230_230 () Int)
(declare-fun g_s231_231 () Int)
(declare-fun g_s232_232 () Int)
(declare-fun g_s233_233 () Int)
(declare-fun g_s234_234 () Int)
(declare-fun g_s235_235 () Int)
(declare-fun g_s236_236 () Int)
(declare-fun g_s237_237 () Int)
(declare-fun g_s238_238 () Int)
(declare-fun g_s239_239 () Int)
(declare-fun g_s24_24 () Int)
(declare-fun g_s241_240 () Int)
(declare-fun g_s25_25 () Int)
(declare-fun g_s26_26 () Int)
(declare-fun g_s27_27 () Int)
(declare-fun g_s28_28 () Int)
(declare-fun g_s29_29 () Int)
(declare-fun g_s3_3 () Int)
(declare-fun g_s30_30 () Int)
(declare-fun g_s31_31 () Int)
(declare-fun g_s32_32 () Int)
(declare-fun g_s33_33 () Int)
(declare-fun g_s34_34 () Int)
(declare-fun g_s35_35 () Int)
(declare-fun g_s36_36 () Int)
(declare-fun g_s37_37 () Int)
(declare-fun g_s38_38 () Int)
(declare-fun g_s39_39 () Int)
(declare-fun g_s4_4 () Int)
(declare-fun g_s40_40 () Int)
(declare-fun g_s41_41 () Int)
(declare-fun g_s42_42 () Int)
(declare-fun g_s43_43 () Int)
(declare-fun g_s44_44 () Int)
(declare-fun g_s45_45 () Int)
(declare-fun g_s46_46 () Int)
(declare-fun g_s47_47 () Int)
(declare-fun g_s48_48 () Int)
(declare-fun g_s49_49 () Int)
(declare-fun g_s5_5 () Int)
(declare-fun g_s50_50 () Int)
(declare-fun g_s51_51 () Int)
(declare-fun g_s52_52 () Int)
(declare-fun g_s53_53 () Int)
(declare-fun g_s54_54 () Int)
(declare-fun g_s55_55 () Int)
(declare-fun g_s56_56 () Int)
(declare-fun g_s57_57 () Int)
(declare-fun g_s58_58 () Int)
(declare-fun g_s59_59 () Int)
(declare-fun g_s6_6 () Int)
(declare-fun g_s60_60 () Int)
(declare-fun g_s61_61 () Int)
(declare-fun g_s62_62 () Int)
(declare-fun g_s63_63 () Int)
(declare-fun g_s64_64 () Int)
(declare-fun g_s65_65 () Int)
(declare-fun g_s66_66 () Int)
(declare-fun g_s67_67 () Int)
(declare-fun g_s68_68 () Int)
(declare-fun g_s69_69 () Int)
(declare-fun g_s7_7 () Int)
(declare-fun g_s70_70 () Int)
(declare-fun g_s71_71 () Int)
(declare-fun g_s72_72 () Int)
(declare-fun g_s73_73 () Int)
(declare-fun g_s74_74 () Int)
(declare-fun g_s75_75 () Int)
(declare-fun g_s76_76 () Int)
(declare-fun g_s77_77 () Int)
(declare-fun g_s78_78 () Int)
(declare-fun g_s79_79 () Int)
(declare-fun g_s8_8 () Int)
(declare-fun g_s80_80 () Int)
(declare-fun g_s81_81 () Int)
(declare-fun g_s82_82 () Int)
(declare-fun g_s83_83 () Int)
(declare-fun g_s84_84 () Int)
(declare-fun g_s85_85 () Int)
(declare-fun g_s86_86 () Int)
(declare-fun g_s87_87 () Int)
(declare-fun g_s88_88 () Int)
(declare-fun g_s89_89 () Int)
(declare-fun g_s9_9 () Int)
(declare-fun g_s90_90 () Int)
(declare-fun g_s91_91 () Int)
(declare-fun g_s92_92 () Int)
(declare-fun g_s93_93 () Int)
(declare-fun g_s94_94 () Int)
(declare-fun g_s95_95 () Int)
(declare-fun g_s96_96 () Int)
(declare-fun g_s97_97 () Int)
(declare-fun g_s98_98 () Int)
(declare-fun g_s99_99 () Int)
; Defines
(define-fun |def_B definitions| () Bool (and (= NAT (interval 0 MaxInt)) (= INT (interval MinInt MaxInt))))
(define-fun |def_ctx| () Bool (and (= g_s0_0 (SET (mapplet g_s48_48 (mapplet g_s47_47 (mapplet g_s46_46 (mapplet g_s45_45 (mapplet g_s44_44 (mapplet g_s43_43 (mapplet g_s42_42 (mapplet g_s41_41 (mapplet g_s40_40 (mapplet g_s39_39 (mapplet g_s38_38 (mapplet g_s37_37 (mapplet g_s36_36 (mapplet g_s35_35 (mapplet g_s34_34 (mapplet g_s33_33 (mapplet g_s32_32 (mapplet g_s31_31 (mapplet g_s30_30 (mapplet g_s29_29 (mapplet g_s28_28 (mapplet g_s27_27 (mapplet g_s26_26 (mapplet g_s25_25 (mapplet g_s24_24 (mapplet g_s23_23 (mapplet g_s22_22 (mapplet g_s21_21 (mapplet g_s20_20 (mapplet g_s19_19 (mapplet g_s18_18 (mapplet g_s17_17 (mapplet g_s16_16 (mapplet g_s15_15 (mapplet g_s14_14 (mapplet g_s13_13 (mapplet g_s12_12 (mapplet g_s11_11 (mapplet g_s10_10 (mapplet g_s9_9 (mapplet g_s8_8 (mapplet g_s7_7 (mapplet g_s6_6 (mapplet g_s5_5 (mapplet g_s4_4 (mapplet g_s3_3 (mapplet g_s2_2 g_s1_1))))))))))))))))))))))))))))))))))))))))))))))))) (= g_s49_49 (SET (mapplet g_s57_57 (mapplet g_s56_56 (mapplet g_s55_55 (mapplet g_s54_54 (mapplet g_s53_53 (mapplet g_s52_52 (mapplet g_s51_51 g_s50_50))))))))) (= g_s58_58 (SET (mapplet g_s85_85 (mapplet g_s84_84 (mapplet g_s83_83 (mapplet g_s82_82 (mapplet g_s81_81 (mapplet g_s80_80 (mapplet g_s79_79 (mapplet g_s78_78 (mapplet g_s77_77 (mapplet g_s76_76 (mapplet g_s75_75 (mapplet g_s74_74 (mapplet g_s73_73 (mapplet g_s72_72 (mapplet g_s71_71 (mapplet g_s70_70 (mapplet g_s69_69 (mapplet g_s68_68 (mapplet g_s67_67 (mapplet g_s66_66 (mapplet g_s65_65 (mapplet g_s64_64 (mapplet g_s63_63 (mapplet g_s62_62 (mapplet g_s61_61 (mapplet g_s60_60 g_s59_59)))))))))))))))))))))))))))) (= g_s86_86 (SET (mapplet g_s88_88 g_s87_87))) (= g_s89_89 (SET (mapplet g_s98_98 (mapplet g_s97_97 (mapplet g_s96_96 (mapplet g_s95_95 (mapplet g_s94_94 (mapplet g_s93_93 (mapplet g_s92_92 (mapplet g_s91_91 g_s90_90)))))))))) (= g_s99_99 (SET (mapplet g_s102_102 (mapplet g_s101_101 g_s100_100)))) (= g_s103_103 (SET (mapplet g_s105_105 g_s104_104))) (= g_s106_106 (SET (mapplet g_s113_113 (mapplet g_s112_112 (mapplet g_s111_111 (mapplet g_s110_110 (mapplet g_s109_109 (mapplet g_s108_108 g_s107_107)))))))) (= g_s114_114 (SET (mapplet g_s123_123 (mapplet g_s122_122 (mapplet g_s121_121 (mapplet g_s120_120 (mapplet g_s119_119 (mapplet g_s118_118 (mapplet g_s117_117 (mapplet g_s116_116 g_s115_115)))))))))) (= g_s124_124 (SET (mapplet g_s128_128 (mapplet g_s127_127 (mapplet g_s126_126 g_s125_125))))) (= g_s129_129 (SET (mapplet g_s132_132 (mapplet g_s131_131 g_s130_130)))) (= g_s133_133 (interval 0 (- 1))) (= g_s134_134 (interval 0 65535)) (= g_s135_135 (interval 0 255)) (= g_s136_136 (|-->| (interval 1 3) g_s135_135)) (mem g_s137_137 (|-->| (set_prod (interval 0 12) (interval 0 7)) g_s135_135)) (mem g_s138_138 (|-->| (set_prod (interval 0 12) (interval 0 2)) g_s135_135)) (mem g_s139_139 (|-->| (set_prod (interval 0 12) (interval 0 2)) g_s135_135)) (mem g_s140_140 g_s135_135) (<= 10 g_s140_140) (mem g_s141_141 (|-->| (interval 0 12) g_s134_134)) (mem g_s142_142 (|-->| (interval 0 12) g_s134_134)) (mem g_s143_143 g_s133_133) (mem g_s144_144 g_s135_135) (mem g_s145_145 g_s135_135) (mem g_s146_146 g_s135_135) (mem g_s147_147 g_s135_135) (mem g_s148_148 g_s135_135) (mem g_s149_149 g_s135_135) (mem g_s150_150 g_s135_135) (mem g_s151_151 g_s135_135) (mem g_s152_152 g_s135_135) (mem g_s153_153 g_s134_134) (not (= g_s152_152 g_s148_148)) (mem g_s154_154 g_s135_135) (mem g_s155_155 g_s135_135) (mem g_s156_156 g_s135_135) (<= g_s156_156 241) (mem g_s157_157 g_s135_135) (<= (+ g_s156_156 20) g_s155_155) (<= (+ g_s157_157 4) g_s155_155) (<= 41 g_s155_155) (mem g_s158_158 g_s136_136) (= g_s158_158 (set_prod (interval 1 3) (SET 255))) (mem g_s159_159 g_s135_135) (mem g_s160_160 g_s135_135) (mem g_s161_161 g_s135_135) (mem g_s162_162 g_s135_135) (mem g_s163_163 g_s135_135) (mem g_s164_164 g_s135_135) (mem g_s165_165 g_s135_135) (mem g_s166_166 g_s135_135) (mem g_s167_167 g_s135_135) (mem g_s168_168 g_s133_133) (mem g_s169_169 (|-->| (interval 0 255) g_s134_134)) (mem g_s170_170 g_s135_135) (<= g_s170_170 127) (mem g_s171_171 g_s135_135) (< g_s171_171 50) (mem g_s172_172 g_s135_135) (< g_s172_172 50) (< (+ g_s171_171 g_s172_172) 100) (mem g_s173_173 g_s134_134) (mem g_s174_174 g_s135_135) (mem g_s175_175 g_s135_135) (mem g_s176_176 g_s135_135) (mem g_s177_177 g_s135_135) (<= 11 g_s175_175) (<= g_s175_175 127) (<= (+ g_s178_179 g_s179_178) (div (* (* g_s170_170 g_s140_140) (- 100 g_s172_172)) 100)) (<= 0 (- (+ 65535 g_s179_178) (div (* (* g_s170_170 g_s140_140) (- 100 g_s172_172)) 100))) (<= (+ g_s178_179 g_s179_178) (* g_s170_170 g_s140_140)) (<= (div (* (* g_s170_170 g_s140_140) (- 100 g_s171_171)) 100) (+ (div (* (* g_s170_170 g_s140_140) (+ 100 g_s172_172)) 100) 1)) (<= (* g_s140_140 (- 100 g_s172_172)) g_s180_180) (<= (div (* g_s170_170 (* g_s140_140 (- 100 g_s172_172))) 100) 65535) (<= g_s178_179 (div (* (* g_s170_170 g_s140_140) (- 100 g_s172_172)) 100)) (<= (* g_s170_170 g_s140_140) 65535) (<= 0 (- (+ 1 (* g_s170_170 g_s140_140)) (div (* (* g_s170_170 g_s140_140) (- (- 100 g_s172_172) g_s171_171)) 100))) (<= (div (* (* g_s170_170 g_s140_140) (- 100 g_s172_172)) 100) (* g_s170_170 g_s140_140)) (<= 0 (- (+ 1 (div (* (* g_s170_170 g_s140_140) (- 100 g_s172_172)) 100)) (div (* (* g_s170_170 g_s140_140) (- (- 100 g_s172_172) g_s171_171)) 100))) (<= (* g_s170_170 g_s140_140) (div (* (* g_s170_170 g_s140_140) (+ 100 g_s172_172)) 100)) (<= 0 (- (+ 1 (* g_s170_170 g_s140_140)) (div (* (* g_s170_170 g_s140_140) (- 100 g_s171_171)) 100))) (<= 0 (+ 1 (* g_s170_170 g_s140_140))) (<= 0 (- (+ (+ 65535 g_s178_179) g_s179_178) (* g_s170_170 g_s140_140))) (<= 0 (- (- (- 2) g_s167_167) (* g_s170_170 g_s140_140))) (<= 0 (- (- (- 2) g_s167_167) (div (* (* g_s170_170 g_s140_140) (- 100 g_s172_172)) 100))) (<= (* (* 2 g_s170_170) g_s140_140) (- 1)) (<= (* (* 2 g_s170_170) g_s140_140) (- 2)) (<= 0 (- (- (- 2) g_s167_167) (* (* 2 g_s170_170) g_s140_140))) (mem g_s181_181 g_s135_135) (< g_s181_181 g_s182_182) (mem g_s183_183 g_s135_135) (<= 163 g_s181_181) (= g_s183_183 (- g_s181_181 1)) (mem g_s184_184 g_s135_135) (mem g_s185_185 g_s135_135) (= g_s184_184 2) (= g_s185_185 1) (mem g_s186_186 g_s134_134) (mem g_s187_187 g_s134_134) (mem g_s188_188 g_s134_134) (mem g_s189_189 g_s135_135) (mem g_s190_190 g_s135_135) (mem g_s191_191 g_s135_135) (mem g_s192_192 g_s135_135) (mem g_s193_193 g_s135_135) (mem g_s194_194 g_s135_135) (not (= g_s193_193 g_s194_194)) (mem g_s195_195 g_s135_135) (mem g_s196_196 g_s135_135) (mem g_s197_197 g_s135_135) (not (= g_s195_195 g_s196_196)) (not (= g_s195_195 g_s197_197)) (not (= g_s196_196 g_s197_197)) (mem g_s198_198 g_s133_133) (mem g_s199_199 g_s135_135) (mem g_s200_200 g_s135_135) (mem g_s201_201 g_s134_134) (<= 233 g_s201_201) (<= g_s201_201 65534) (<= g_s155_155 g_s201_201) (mem g_s202_202 (|-->| (interval 0 255) g_s134_134)) (mem g_s203_203 g_s133_133) (mem g_s204_204 g_s133_133) (mem g_s205_205 g_s134_134) (mem g_s206_206 g_s134_134) (mem g_s207_207 g_s133_133) (mem g_s208_208 g_s133_133) (mem g_s209_209 g_s133_133) (mem g_s210_210 g_s133_133) (mem g_s211_211 g_s133_133) (mem g_s212_212 g_s133_133) (mem g_s213_213 g_s133_133) (mem g_s214_214 g_s133_133) (mem g_s215_215 g_s133_133) (mem g_s216_216 g_s133_133) (mem g_s217_217 g_s133_133) (mem g_s218_218 g_s133_133) (mem g_s219_219 g_s133_133) (mem g_s220_220 g_s133_133) (mem g_s221_221 g_s133_133) (mem g_s222_222 g_s133_133) (mem g_s223_223 g_s133_133) (mem g_s224_224 g_s133_133) (mem g_s225_225 g_s133_133) (mem g_s226_226 g_s133_133) (mem g_s227_227 g_s133_133) (mem g_s228_228 g_s134_134) (mem g_s229_229 (|-->| (interval 0 2) g_s135_135)) (mem g_s230_230 g_s135_135) (< g_s230_230 g_s182_182) (mem g_s231_231 g_s135_135) (= g_s231_231 (- g_s230_230 1)) (mem g_s232_232 g_s135_135) (<= g_s232_232 g_s230_230) (= g_s232_232 2) (mem g_s233_233 g_s135_135) (mem g_s234_234 g_s135_135) (= g_s234_234 g_s233_233) (= g_s234_234 2) (mem g_s235_235 (|-->| (interval 0 3) g_s135_135)) (mem g_s236_236 (|-->| (interval 0 3) g_s135_135)) (<= (+ 128 (* 11 g_s230_230)) g_s201_201) (<= (+ 190 (* 3 g_s175_175)) g_s201_201) (<= (* 11 g_s230_230) 22) (<= (* 3 g_s175_175) 33) (mem g_s237_237 (|-->| (interval 0 2) g_s135_135))))
(define-fun |def_seext| () Bool (and (mem g_s238_238 (seq g_s135_135)) (<= (size g_s238_238) g_s183_183) (mem g_s239_239 g_s134_134)))
(define-fun |def_lprp| () Bool true)
(define-fun |def_inprp| () Bool true)
(define-fun |def_inext| () Bool true)
(define-fun |def_inv| () Bool true)
(define-fun |def_ass| () Bool true)
(define-fun |def_cst| () Bool true)
(define-fun |def_sets| () Bool true)
; PO group 0 
(assert |def_B definitions|)
(assert |def_ctx|)
(assert |def_cst|)
(assert |def_lprp|)
(assert |def_inprp|)
(assert |def_inext|)
(assert |def_seext|)
(assert |def_inv|)
(assert |def_ass|)
(define-fun lh_1 () Bool (mem g_s241_240 g_s134_134))
; PO 1 in group 0
(assert (not (=> lh_1 (mem g_s238_238 (seq (ran g_s238_238))))))
(check-sat)
(exit)